NAME : traveling-santa-2018-prime-paths.30301.tour
COMMENT : Length = 30301
COMMENT : Found by LKH [Keld Helsgaun] Sun Jun 12 20:00:17 2022
TYPE : TOUR
DIMENSION : 100
TOUR_SECTION
1
46
41
97
81
55
2
77
72
56
88
35
11
38
78
67
59
12
49
31
79
17
54
96
80
18
99
61
48
19
95
76
89
84
23
21
82
93
100
25
39
37
44
5
9
33
34
14
62
98
30
71
69
3
40
53
63
52
60
10
70
36
51
13
22
47
73
7
4
50
26
29
94
83
32
24
20
74
85
66
27
64
45
43
28
91
6
8
87
90
75
42
15
65
16
57
86
92
68
58
-1
EOF
